c Random 4-CNF over 20 variables and 60 clauses
c Generated with `cnfgen`
c (C) 2012-2016 Massimo Lauria <lauria.massimo@gmail.com>
c https://massimolauria.github.io/cnfgen
c
c COMMAND LINE: cnfgen --output tmp-4-20-60.dimacs --output-format dimacs randkcnf 4 20 60
c
c sdimacs generated by gen-sdimacs
c
p cnf 20 60
r 0.5 1 2 3 4 5 6 7 8 9 10 0
e  11 12 13 14 15 16 17 18 19 20 0
12 -13 19 -20 0
2 -8 9 -10 0
12 13 -14 15 0
1 5 -14 -17 0
3 13 18 -19 0
-3 8 18 19 0
-4 -8 15 20 0
-2 -6 10 -16 0
-1 10 14 19 0
-2 3 8 -14 0
5 -9 -19 20 0
-2 6 11 -18 0
-3 5 11 12 0
-12 -18 -19 20 0
2 -14 16 -18 0
-4 10 14 -19 0
8 -9 16 17 0
-2 12 -17 18 0
1 5 6 -15 0
5 8 -13 18 0
1 -10 -15 -18 0
8 12 -13 19 0
14 -16 17 20 0
-1 3 4 6 0
-3 -5 7 -18 0
6 9 14 16 0
1 -8 -15 18 0
7 -15 16 18 0
6 -8 15 20 0
4 -11 -14 16 0
-4 8 11 -18 0
-2 -3 -5 6 0
-8 11 -12 -15 0
-15 -16 17 -20 0
-1 4 -7 19 0
5 -10 -12 20 0
7 -11 12 14 0
5 -11 14 17 0
-1 -7 9 18 0
-4 6 -10 -16 0
4 6 -10 20 0
-1 9 10 14 0
-4 -6 -10 15 0
-4 -6 -8 -11 0
15 -18 -19 -20 0
1 -4 8 13 0
-4 10 -11 17 0
-2 -4 9 -14 0
-4 6 -7 -13 0
3 -6 -10 17 0
-2 -11 12 -14 0
2 -5 -15 -20 0
-1 13 -17 18 0
-2 -4 11 14 0
11 -18 19 -20 0
1 9 -10 13 0
-1 8 9 16 0
-1 -6 -8 -20 0
-6 7 -8 -14 0
-4 -9 11 18 0
